p cnf 9 27
-6 2 0
9 -6 -1 0
-8 -4 0
4 -3 0
-5 -3 -2 0
8 -7 -5 -1 0
-7 -1 -9 0
3 -2 -1 0
-8 2 4 0
-5 0
3 0
-4 6 0
8 4 0
2 3 0
8 1 -4 0
-5 4 6 0
3 -7 -5 7 0
3 0
9 -6 4 6 0
2 -3 0
-5 4 6 -2 0
-6 -1 -2 7 0
7 0
-4 0
-2 0
-6 -4 -1 0
-2 0
